\ENCODING=ISO-8859-1
\Problem name: gamsmodel

Minimize
 obj1: - x1 - x128
Subject To
 c1:   - x1 + x20 + x21 + x22 + x23 + x24 + x25 + x26 + x27 + x28 + x29 + x30
       + x31 + x32 + x33 + x34 + x35 + x36 + x37 + x38 + x39 + x40 + x41 + x42
       + x43 + x44 + x45 + x46 + x47 + x48 + x49 + x50 + x51 + x52 + x53 + x54
       + x55  = 0
 c2:   - x1 + x56 + x57 + x58 + x59 + x60 + x61 + x62 + x63 + x64 + x65 + x66
       + x67 + x68 + x69 + x70 + x71 + x72 + x73 + x74 + x75 + x76 + x77 + x78
       + x79 + x80 + x81 + x82 + x83 + x84 + x85 + x86 + x87 + x88 + x89 + x90
       + x91  = 0
 c3:   - x1 + x92 + x93 + x94 + x95 + x96 + x97 + x98 + x99 + x100 + x101
       + x102 + x103 + x104 + x105 + x106 + x107 + x108 + x109 + x110 + x111
       + x112 + x113 + x114 + x115 + x116 + x117 + x118 + x119 + x120 + x121
       + x122 + x123 + x124 + x125 + x126 + x127  = 0
 c4:   x2 - x8 - 17 x20 >= -16
 c5:   x2 - x9 - 17 x21 >= -16
 c6:   x2 - x10 - 17 x22 >= -16
 c7:   x2 - x11 - 17 x23 >= -16
 c8:   x2 - x12 - 17 x24 >= -16
 c9:   x2 - x13 - 17 x25 >= -16
 c10:  x3 - x8 - 17 x26 >= -16
 c11:  x3 - x9 - 17 x27 >= -16
 c12:  x3 - x10 - 17 x28 >= -16
 c13:  x3 - x11 - 17 x29 >= -16
 c14:  x3 - x12 - 17 x30 >= -16
 c15:  x3 - x13 - 17 x31 >= -16
 c16:  x4 - x8 - 17 x32 >= -16
 c17:  x4 - x9 - 17 x33 >= -16
 c18:  x4 - x10 - 17 x34 >= -16
 c19:  x4 - x11 - 17 x35 >= -16
 c20:  x4 - x12 - 17 x36 >= -16
 c21:  x4 - x13 - 17 x37 >= -16
 c22:  x5 - x8 - 17 x38 >= -16
 c23:  x5 - x9 - 17 x39 >= -16
 c24:  x5 - x10 - 17 x40 >= -16
 c25:  x5 - x11 - 17 x41 >= -16
 c26:  x5 - x12 - 17 x42 >= -16
 c27:  x5 - x13 - 17 x43 >= -16
 c28:  x6 - x8 - 17 x44 >= -16
 c29:  x6 - x9 - 17 x45 >= -16
 c30:  x6 - x10 - 17 x46 >= -16
 c31:  x6 - x11 - 17 x47 >= -16
 c32:  x6 - x12 - 17 x48 >= -16
 c33:  x6 - x13 - 17 x49 >= -16
 c34:  x7 - x8 - 17 x50 >= -16
 c35:  x7 - x9 - 17 x51 >= -16
 c36:  x7 - x10 - 17 x52 >= -16
 c37:  x7 - x11 - 17 x53 >= -16
 c38:  x7 - x12 - 17 x54 >= -16
 c39:  x7 - x13 - 17 x55 >= -16
 c40:  x8 - x14 - 17 x56 >= -16
 c41:  x8 - x15 - 17 x57 >= -16
 c42:  x8 - x16 - 17 x58 >= -16
 c43:  x8 - x17 - 17 x59 >= -16
 c44:  x8 - x18 - 17 x60 >= -16
 c45:  x8 - x19 - 17 x61 >= -16
 c46:  x9 - x14 - 17 x62 >= -16
 c47:  x9 - x15 - 17 x63 >= -16
 c48:  x9 - x16 - 17 x64 >= -16
 c49:  x9 - x17 - 17 x65 >= -16
 c50:  x9 - x18 - 17 x66 >= -16
 c51:  x9 - x19 - 17 x67 >= -16
 c52:  x10 - x14 - 17 x68 >= -16
 c53:  x10 - x15 - 17 x69 >= -16
 c54:  x10 - x16 - 17 x70 >= -16
 c55:  x10 - x17 - 17 x71 >= -16
 c56:  x10 - x18 - 17 x72 >= -16
 c57:  x10 - x19 - 17 x73 >= -16
 c58:  x11 - x14 - 17 x74 >= -16
 c59:  x11 - x15 - 17 x75 >= -16
 c60:  x11 - x16 - 17 x76 >= -16
 c61:  x11 - x17 - 17 x77 >= -16
 c62:  x11 - x18 - 17 x78 >= -16
 c63:  x11 - x19 - 17 x79 >= -16
 c64:  x12 - x14 - 17 x80 >= -16
 c65:  x12 - x15 - 17 x81 >= -16
 c66:  x12 - x16 - 17 x82 >= -16
 c67:  x12 - x17 - 17 x83 >= -16
 c68:  x12 - x18 - 17 x84 >= -16
 c69:  x12 - x19 - 17 x85 >= -16
 c70:  x13 - x14 - 17 x86 >= -16
 c71:  x13 - x15 - 17 x87 >= -16
 c72:  x13 - x16 - 17 x88 >= -16
 c73:  x13 - x17 - 17 x89 >= -16
 c74:  x13 - x18 - 17 x90 >= -16
 c75:  x13 - x19 - 17 x91 >= -16
 c76:  - x2 + x14 - 17 x92 >= -16
 c77:  - x3 + x14 - 17 x93 >= -16
 c78:  - x4 + x14 - 17 x94 >= -16
 c79:  - x5 + x14 - 17 x95 >= -16
 c80:  - x6 + x14 - 17 x96 >= -16
 c81:  - x7 + x14 - 17 x97 >= -16
 c82:  - x2 + x15 - 17 x98 >= -16
 c83:  - x3 + x15 - 17 x99 >= -16
 c84:  - x4 + x15 - 17 x100 >= -16
 c85:  - x5 + x15 - 17 x101 >= -16
 c86:  - x6 + x15 - 17 x102 >= -16
 c87:  - x7 + x15 - 17 x103 >= -16
 c88:  - x2 + x16 - 17 x104 >= -16
 c89:  - x3 + x16 - 17 x105 >= -16
 c90:  - x4 + x16 - 17 x106 >= -16
 c91:  - x5 + x16 - 17 x107 >= -16
 c92:  - x6 + x16 - 17 x108 >= -16
 c93:  - x7 + x16 - 17 x109 >= -16
 c94:  - x2 + x17 - 17 x110 >= -16
 c95:  - x3 + x17 - 17 x111 >= -16
 c96:  - x4 + x17 - 17 x112 >= -16
 c97:  - x5 + x17 - 17 x113 >= -16
 c98:  - x6 + x17 - 17 x114 >= -16
 c99:  - x7 + x17 - 17 x115 >= -16
 c100: - x2 + x18 - 17 x116 >= -16
 c101: - x3 + x18 - 17 x117 >= -16
 c102: - x4 + x18 - 17 x118 >= -16
 c103: - x5 + x18 - 17 x119 >= -16
 c104: - x6 + x18 - 17 x120 >= -16
 c105: - x7 + x18 - 17 x121 >= -16
 c106: - x2 + x19 - 17 x122 >= -16
 c107: - x3 + x19 - 17 x123 >= -16
 c108: - x4 + x19 - 17 x124 >= -16
 c109: - x5 + x19 - 17 x125 >= -16
 c110: - x6 + x19 - 17 x126 >= -16
 c111: - x7 + x19 - 17 x127 >= -16
 c112: x2 - x3 <= -1
 c113: x3 - x4 <= -1
 c114: x4 - x5 <= -1
 c115: x5 - x6 <= -1
 c116: x6 - x7 <= -1
 c117: x8 - x9 <= -1
 c118: x9 - x10 <= -1
 c119: x10 - x11 <= -1
 c120: x11 - x12 <= -1
 c121: x12 - x13 <= -1
 c122: x14 - x15 <= -1
 c123: x15 - x16 <= -1
 c124: x16 - x17 <= -1
 c125: x17 - x18 <= -1
 c126: x18 - x19 <= -1
Bounds
      x1 Free
      x2 = 1
 1 <= x3 <= 18
 1 <= x4 <= 18
 1 <= x5 <= 18
 1 <= x6 <= 18
 1 <= x7 <= 18
 1 <= x8 <= 18
 1 <= x9 <= 18
 1 <= x10 <= 18
 1 <= x11 <= 18
 1 <= x12 <= 18
 1 <= x13 <= 18
 1 <= x14 <= 18
 1 <= x15 <= 18
 1 <= x16 <= 18
 1 <= x17 <= 18
 1 <= x18 <= 18
 1 <= x19 <= 18
 0 <= x20 <= 1
 0 <= x21 <= 1
 0 <= x22 <= 1
 0 <= x23 <= 1
 0 <= x24 <= 1
 0 <= x25 <= 1
 0 <= x26 <= 1
 0 <= x27 <= 1
 0 <= x28 <= 1
 0 <= x29 <= 1
 0 <= x30 <= 1
 0 <= x31 <= 1
 0 <= x32 <= 1
 0 <= x33 <= 1
 0 <= x34 <= 1
 0 <= x35 <= 1
 0 <= x36 <= 1
 0 <= x37 <= 1
 0 <= x38 <= 1
 0 <= x39 <= 1
 0 <= x40 <= 1
 0 <= x41 <= 1
 0 <= x42 <= 1
 0 <= x43 <= 1
 0 <= x44 <= 1
 0 <= x45 <= 1
 0 <= x46 <= 1
 0 <= x47 <= 1
 0 <= x48 <= 1
 0 <= x49 <= 1
 0 <= x50 <= 1
 0 <= x51 <= 1
 0 <= x52 <= 1
 0 <= x53 <= 1
 0 <= x54 <= 1
 0 <= x55 <= 1
 0 <= x56 <= 1
 0 <= x57 <= 1
 0 <= x58 <= 1
 0 <= x59 <= 1
 0 <= x60 <= 1
 0 <= x61 <= 1
 0 <= x62 <= 1
 0 <= x63 <= 1
 0 <= x64 <= 1
 0 <= x65 <= 1
 0 <= x66 <= 1
 0 <= x67 <= 1
 0 <= x68 <= 1
 0 <= x69 <= 1
 0 <= x70 <= 1
 0 <= x71 <= 1
 0 <= x72 <= 1
 0 <= x73 <= 1
 0 <= x74 <= 1
 0 <= x75 <= 1
 0 <= x76 <= 1
 0 <= x77 <= 1
 0 <= x78 <= 1
 0 <= x79 <= 1
 0 <= x80 <= 1
 0 <= x81 <= 1
 0 <= x82 <= 1
 0 <= x83 <= 1
 0 <= x84 <= 1
 0 <= x85 <= 1
 0 <= x86 <= 1
 0 <= x87 <= 1
 0 <= x88 <= 1
 0 <= x89 <= 1
 0 <= x90 <= 1
 0 <= x91 <= 1
 0 <= x92 <= 1
 0 <= x93 <= 1
 0 <= x94 <= 1
 0 <= x95 <= 1
 0 <= x96 <= 1
 0 <= x97 <= 1
 0 <= x98 <= 1
 0 <= x99 <= 1
 0 <= x100 <= 1
 0 <= x101 <= 1
 0 <= x102 <= 1
 0 <= x103 <= 1
 0 <= x104 <= 1
 0 <= x105 <= 1
 0 <= x106 <= 1
 0 <= x107 <= 1
 0 <= x108 <= 1
 0 <= x109 <= 1
 0 <= x110 <= 1
 0 <= x111 <= 1
 0 <= x112 <= 1
 0 <= x113 <= 1
 0 <= x114 <= 1
 0 <= x115 <= 1
 0 <= x116 <= 1
 0 <= x117 <= 1
 0 <= x118 <= 1
 0 <= x119 <= 1
 0 <= x120 <= 1
 0 <= x121 <= 1
 0 <= x122 <= 1
 0 <= x123 <= 1
 0 <= x124 <= 1
 0 <= x125 <= 1
 0 <= x126 <= 1
 0 <= x127 <= 1
      x128 = 0
Binaries
 x20  x21  x22  x23  x24  x25  x26  x27  x28  x29  x30  x31  x32  x33  x34 
 x35  x36  x37  x38  x39  x40  x41  x42  x43  x44  x45  x46  x47  x48  x49 
 x50  x51  x52  x53  x54  x55  x56  x57  x58  x59  x60  x61  x62  x63  x64 
 x65  x66  x67  x68  x69  x70  x71  x72  x73  x74  x75  x76  x77  x78  x79 
 x80  x81  x82  x83  x84  x85  x86  x87  x88  x89  x90  x91  x92  x93  x94 
 x95  x96  x97  x98  x99  x100  x101  x102  x103  x104  x105  x106  x107  x108 
 x109  x110  x111  x112  x113  x114  x115  x116  x117  x118  x119  x120  x121 
 x122  x123  x124  x125  x126  x127 
End
